************************************************************************
file with basedata            : md346_.bas
initial value random generator: 11959
************************************************************************
projects                      :  1
jobs (incl. supersource/sink ):  22
horizon                       :  150
RESOURCES
  - renewable                 :  2   R
  - nonrenewable              :  2   N
  - doubly constrained        :  0   D
************************************************************************
PROJECT INFORMATION:
pronr.  #jobs rel.date duedate tardcost  MPM-Time
    1     20      0       22        5       22
************************************************************************
PRECEDENCE RELATIONS:
jobnr.    #modes  #successors   successors
   1        1          3           2   3   4
   2        3          2          12  13
   3        3          3           5   6   8
   4        3          3          10  11  15
   5        3          2           7  19
   6        3          3           7  11  13
   7        3          2           9  10
   8        3          2          11  21
   9        3          2          14  20
  10        3          1          21
  11        3          2          17  20
  12        3          3          15  16  20
  13        3          2          15  16
  14        3          1          18
  15        3          2          18  19
  16        3          2          17  18
  17        3          1          19
  18        3          1          21
  19        3          1          22
  20        3          1          22
  21        3          1          22
  22        1          0        
************************************************************************
REQUESTS/DURATIONS:
jobnr. mode duration  R 1  R 2  N 1  N 2
------------------------------------------------------------------------
  1      1     0       0    0    0    0
  2      1     6       0    5   10    0
         2     8       9    0    9    0
         3    10       4    0    8    0
  3      1     5      10    0    0    7
         2     6       0    6    3    0
         3     8       9    0    0    3
  4      1     1       4    0    1    0
         2     3       2    0    0    5
         3     7       0    7    0    3
  5      1     2       8    0    0    5
         2     4       0    6    0    5
         3     8       0    5    0    3
  6      1     1       7    0    0    2
         2     4       5    0    5    0
         3     6       3    0    2    0
  7      1     3       9    0    0    5
         2     6       0    7    0    4
         3    10       0    5    3    0
  8      1     2       0   10    6    0
         2     7       0    1    5    0
         3     7       0    4    0    2
  9      1     4       5    0    7    0
         2     8       4    0    6    0
         3    10       3    0    0    2
 10      1     1       9    0    2    0
         2     4       0    8    0    7
         3     4       0    6    2    0
 11      1     3       0    7    0    7
         2     4       8    0    2    0
         3     6       7    0    1    0
 12      1     1       0    5    6    0
         2     3       0    3    0    4
         3     4       7    0    0    2
 13      1     2       4    0    9    0
         2     6       0    7    0    7
         3     7       0    7    0    1
 14      1     1       5    0    0    2
         2     3       0    6    0    2
         3     3       5    0    9    0
 15      1     3       7    0    5    0
         2     6       0    6    0    6
         3     8       6    0    0    2
 16      1     3       7    0    0    8
         2     4       7    0    5    0
         3     5       0    3    0    7
 17      1     1       5    0    0    7
         2     4       5    0    0    2
         3    10       0    5    5    0
 18      1     4       0    5    0    8
         2     7       6    0    8    0
         3    10       1    0    7    0
 19      1     2       6    0    3    0
         2     4       0    4    0    9
         3    10       5    0    0    5
 20      1     3       0    4    8    0
         2     9       0    1    7    0
         3     9       0    1    0    1
 21      1     3       0    8    0    9
         2     4       0    7    0    7
         3     8       8    0    0    3
 22      1     0       0    0    0    0
************************************************************************
RESOURCEAVAILABILITIES:
  R 1  R 2  N 1  N 2
   16   15   97  103
************************************************************************
